(declare-fun e () String)
(declare-fun c () String)
(declare-fun g () String)
(declare-fun b () String)
(declare-fun f () String)
(declare-fun a () String)
(declare-fun h () String)
(assert (= (str.++ f g g) (str.++ e "aeg")))
(assert (= (str.++ c "a") (str.++ a "cc" b "f" b)))
(assert (= (str.++ a f "ae" e) (str.++ "c" h)))

(check-sat)
